NAME          DCAP_3_4_2_500_SS327
ROWS
 N  OBJ
 L  CON1
 L  CON2
 L  CON3
 L  CON4
 L  CON5
 L  CON6
 L  CON7
 L  CON8
 L  CON9
 L  CON10
 L  CON11
 L  CON12
 E  CON13
 E  CON14
 E  CON15
 E  CON16
 E  CON17
 E  CON18
 E  CON19
 E  CON20
COLUMNS
    x[1,1]    OBJ       6.180167      CON1      1.000000    
    x[1,1]    CON7      -1.000000     CON8      -1.000000   
    x[1,2]    OBJ       5.039546      CON2      1.000000    
    x[1,2]    CON8      -1.000000   
    x[2,1]    OBJ       6.732585      CON3      1.000000    
    x[2,1]    CON9      -1.000000     CON10     -1.000000   
    x[2,2]    OBJ       7.443064      CON4      1.000000    
    x[2,2]    CON10     -1.000000   
    x[3,1]    OBJ       6.563535      CON5      1.000000    
    x[3,1]    CON11     -1.000000     CON12     -1.000000   
    x[3,2]    OBJ       6.054841      CON6      1.000000    
    x[3,2]    CON12     -1.000000   
    MARKER    'MARKER'                'INTORG'
    u[1,1]    OBJ       48.076654     CON1      -1.000000   
    u[1,2]    OBJ       49.466655     CON2      -1.000000   
    u[2,1]    OBJ       49.996186     CON3      -1.000000   
    u[2,2]    OBJ       32.230043     CON4      -1.000000   
    u[3,1]    OBJ       20.066487     CON5      -1.000000   
    u[3,2]    OBJ       27.484319     CON6      -1.000000   
    y[1,1,1]  OBJ       7.250276      CON7      1.180595    
    y[1,1,1]  CON13     1.000000    
    y[1,1,2]  OBJ       7.813782      CON8      1.083341    
    y[1,1,2]  CON14     1.000000    
    y[1,2,1]  OBJ       5.362080      CON7      1.056713    
    y[1,2,1]  CON15     1.000000    
    y[1,2,2]  OBJ       9.578277      CON8      1.402356    
    y[1,2,2]  CON16     1.000000    
    y[1,3,1]  OBJ       8.193336      CON7      1.484749    
    y[1,3,1]  CON17     1.000000    
    y[1,3,2]  OBJ       9.188831      CON8      0.539567    
    y[1,3,2]  CON18     1.000000    
    y[1,4,1]  OBJ       6.916558      CON7      1.148768    
    y[1,4,1]  CON19     1.000000    
    y[1,4,2]  OBJ       6.062456      CON8      1.021374    
    y[1,4,2]  CON20     1.000000    
    y[2,1,1]  OBJ       7.285403      CON9      1.180595    
    y[2,1,1]  CON13     1.000000    
    y[2,1,2]  OBJ       7.445961      CON10     1.083341    
    y[2,1,2]  CON14     1.000000    
    y[2,2,1]  OBJ       8.280935      CON9      1.056713    
    y[2,2,1]  CON15     1.000000    
    y[2,2,2]  OBJ       7.269958      CON10     1.402356    
    y[2,2,2]  CON16     1.000000    
    y[2,3,1]  OBJ       8.860445      CON9      1.484749    
    y[2,3,1]  CON17     1.000000    
    y[2,3,2]  OBJ       9.332558      CON10     0.539567    
    y[2,3,2]  CON18     1.000000    
    y[2,4,1]  OBJ       5.774637      CON9      1.148768    
    y[2,4,1]  CON19     1.000000    
    y[2,4,2]  OBJ       5.854773      CON10     1.021374    
    y[2,4,2]  CON20     1.000000    
    y[3,1,1]  OBJ       7.615431      CON11     1.180595    
    y[3,1,1]  CON13     1.000000    
    y[3,1,2]  OBJ       6.762823      CON12     1.083341    
    y[3,1,2]  CON14     1.000000    
    y[3,2,1]  OBJ       5.976331      CON11     1.056713    
    y[3,2,1]  CON15     1.000000    
    y[3,2,2]  OBJ       8.627027      CON12     1.402356    
    y[3,2,2]  CON16     1.000000    
    y[3,3,1]  OBJ       7.016613      CON11     1.484749    
    y[3,3,1]  CON17     1.000000    
    y[3,3,2]  OBJ       5.974606      CON12     0.539567    
    y[3,3,2]  CON18     1.000000    
    y[3,4,1]  OBJ       7.725384      CON11     1.148768    
    y[3,4,1]  CON19     1.000000    
    y[3,4,2]  OBJ       7.897962      CON12     1.021374    
    y[3,4,2]  CON20     1.000000    
    z[1,1]    OBJ       922.037833    CON13     1.000000    
    z[1,2]    OBJ       602.698686    CON14     1.000000    
    z[2,1]    OBJ       652.157042    CON15     1.000000    
    z[2,2]    OBJ       946.410080    CON16     1.000000    
    z[3,1]    OBJ       798.050161    CON17     1.000000    
    z[3,2]    OBJ       984.258921    CON18     1.000000    
    z[4,1]    OBJ       915.017263    CON19     1.000000    
    z[4,2]    OBJ       981.693919    CON20     1.000000    
    MARKER    'MARKER'                 'INTEND'
RHS
    RHS       CON1      -0.000000     CON2      -0.000000   
    RHS       CON3      -0.000000     CON4      -0.000000   
    RHS       CON5      -0.000000     CON6      -0.000000   
    RHS       CON7      -0.000000     CON8      -0.000000   
    RHS       CON9      -0.000000     CON10     -0.000000   
    RHS       CON11     -0.000000     CON12     -0.000000   
    RHS       CON13     1.000000      CON14     1.000000    
    RHS       CON15     1.000000      CON16     1.000000    
    RHS       CON17     1.000000      CON18     1.000000    
    RHS       CON19     1.000000      CON20     1.000000    
BOUNDS
 BV BOUND     u[1,1]  
 BV BOUND     u[1,2]  
 BV BOUND     u[2,1]  
 BV BOUND     u[2,2]  
 BV BOUND     u[3,1]  
 BV BOUND     u[3,2]  
 BV BOUND     y[1,1,1]
 BV BOUND     y[1,1,2]
 BV BOUND     y[1,2,1]
 BV BOUND     y[1,2,2]
 BV BOUND     y[1,3,1]
 BV BOUND     y[1,3,2]
 BV BOUND     y[1,4,1]
 BV BOUND     y[1,4,2]
 BV BOUND     y[2,1,1]
 BV BOUND     y[2,1,2]
 BV BOUND     y[2,2,1]
 BV BOUND     y[2,2,2]
 BV BOUND     y[2,3,1]
 BV BOUND     y[2,3,2]
 BV BOUND     y[2,4,1]
 BV BOUND     y[2,4,2]
 BV BOUND     y[3,1,1]
 BV BOUND     y[3,1,2]
 BV BOUND     y[3,2,1]
 BV BOUND     y[3,2,2]
 BV BOUND     y[3,3,1]
 BV BOUND     y[3,3,2]
 BV BOUND     y[3,4,1]
 BV BOUND     y[3,4,2]
 BV BOUND     z[1,1]  
 BV BOUND     z[1,2]  
 BV BOUND     z[2,1]  
 BV BOUND     z[2,2]  
 BV BOUND     z[3,1]  
 BV BOUND     z[3,2]  
 BV BOUND     z[4,1]  
 BV BOUND     z[4,2]  
ENDATA
